10
1 0 47
2 0 67
2 1 45
3 0 71
3 1 77
3 2 15
4 0 2
4 1 34
4 2 35
4 3 53
5 0 33
5 1 16
5 2 21
5 3 79
5 4 27
6 0 25
6 1 70
6 2 56
6 3 20
6 4 17
6 5 21
7 0 48
7 1 26
7 2 38
7 3 70
7 4 22
7 5 13
7 6 42
8 0 33
8 1 24
8 2 10
8 3 14
8 4 21
8 5 60
8 6 69
8 7 60
9 0 42
9 1 21
9 2 27
9 3 78
9 4 56
9 5 48
9 6 33
9 7 1
9 8 57
